StudentsNr = 10;
InstructorsNr = 30;
DaysNr = 1;
SlotsPerDay = 10;
AvailabilitySlotsLenght = 10;
RoomNr = 1;
ProgrammNr = 1;
DegreeNr = 1;
RolesNr = 1;
CoursesNr = 2;
InstructorsProgramm = [{1}, {1}, {1}, {1}, {1}, {1}, {1}, {1}, {1}, {1}, {1}, {1}, {1}, {1}, {1}, {1}, {1}, {1}, {1}, {1}, {1}, {1}, {1}, {1}, {1}, {1}, {1}, {1}, {1}, {1}];
InstructorRolesPerProgramm = [|{1, 2, 3, 4, 6, 7, 15, 18, 21, 23, 24, 25, 27, 28, 30}|];
InstructorsAvailability = [|1, |0, |0, |0, |0, |0, |1, |1, |1, |0, |1, |0, |1, |1, |1, |0, |0, |0, |1, |1, |1, |1, |0, |0, |0, |0, |1, |0, |0, |0|];
StudentsProgramm = [1, 1, 1, 1, 1, 1, 1, 1, 1, 1];
StudentsDegree = [1, 1, 1, 1, 1, 1, 1, 1, 1, 1];
StudentsSupervisorId = [4, 3, 5, 11, 23, 19, 6, 8, 14, 14];
StudentsCourseIds = [{1}, {2}, {1}, {1}, {1}, {2}, {2}, {1}, {1}, {1}];
StudentsAvailability = [|1, |0, |0, |0, |1, |1, |0, |0, |1, |0|];
TheoryticalMinCard = [0, 0, 0, 1, 0, 1, 0, 1, 1, 1];
CoursesInstructorIds = [{3, 5, 19, 29}, {4, 6, 7, 8, 9, 11, 13, 14, 15, 16, 20, 23, 25, 27, 30}];
RolesDemands = [2];
RolesContinuity = [];
ExamLen = [2, 2, 2, 2, 2, 2, 2, 2, 2, 2];
LunchTsMinLen = 0;
LunchStarts = [4..6];
SupervisorAvailable = 5;
OptimalLunchLenght = [3, 1];
OptimalStartTs = [1, 0];
OptimalFinishTs = [0, 10];
MinimizeRooms = 500;
RolesSoftContinuity = [|1|4|];
SameDegreeInRoom = 10;
Mergeability = 1;
